p edge 50 25
colours 3
e 19 37
e 9 42
e 5 6
e 15 16
e 15 45
e 4 49
e 8 13
e 8 34
e 36 49
e 25 48
e 2 6
e 10 15
e 29 35
e 42 45
e 3 48
e 11 33
e 6 32
e 14 19
e 13 41
e 22 31
e 23 28
e 8 46
e 46 47
e 23 25
e 14 32
